(set-info :smt-lib-version 2.6)
(set-logic QF_S)
(set-info :source |
Generated by: Murphy Berzish, Mitja Kulczynski, Federico Mora, Florin Manea, Joel Day, Dirk Nowotka, Vijay Ganesh, Zhengyang Lu
Generated on: 2020-10-01
Description: Translated from a collection of real-world regex queries, AutomataArk, collected by Loris D’Antoni and Fang Wang: https://github.com/lorisdanto/automatark
Application: Evaluate solvers on real-world regex queries
Target solver: Z3str3RE, CVC4, OSTRICH, Z3seq, Z3str3, Z3-Trau
Publications: Berzish, M., Kulczynski, M., Mora, F., Manea, F., Day, J. D., Nowotka, D., & Ganesh, V. (2021, July). An SMT solver for regular expressions and linear arithmetic over string length. In CAV 2021.
|)
(set-info :license "https://creativecommons.org/licenses/by/4.0/")
(set-info :category "industrial")
(set-info :status unsat)

(declare-const X String)
(assert (not (str.in_re X (str.to_re "YAHOODesktopHost:LOGHost:tvshowticketsResultsFROM:\u{a}"))))
(assert (not (str.in_re X (str.to_re "DesktopSupportFiles\u{13}.htmlReferer:www.freescratchandwin.com\u{a}"))))
(assert (str.in_re X (re.++ (str.to_re "/filename=") (re.* (re.comp (str.to_re "\u{a}"))) (str.to_re ".pfa/i\u{a}"))))
(assert (str.in_re X (re.union (re.++ (str.to_re "(") ((_ re.loop 3 3) (re.range "0" "9")) (str.to_re ")") (re.opt (re.union (str.to_re " ") (str.to_re "\u{9}") (str.to_re "\u{a}") (str.to_re "\u{c}") (str.to_re "\u{d}"))) ((_ re.loop 3 3) (re.range "0" "9")) (re.opt (re.union (str.to_re "-") (str.to_re " ") (str.to_re "\u{9}") (str.to_re "\u{a}") (str.to_re "\u{c}") (str.to_re "\u{d}"))) ((_ re.loop 4 4) (re.range "0" "9"))) (re.++ ((_ re.loop 3 3) (re.range "0" "9")) (re.opt (str.to_re "-")) ((_ re.loop 3 3) (re.range "0" "9")) (re.opt (str.to_re "-")) ((_ re.loop 4 4) (re.range "0" "9")) (str.to_re "\u{a}")))))
(assert (str.in_re X (re.++ (re.union (re.++ (re.* (re.union (str.to_re " ") (str.to_re "\u{9}") (str.to_re "\u{a}") (str.to_re "\u{c}") (str.to_re "\u{d}"))) (re.opt (re.++ (re.range "0" "9") ((_ re.loop 2 2) (re.union (str.to_re "A") (str.to_re "B") (re.range "D" "H") (str.to_re "J") (str.to_re "L") (str.to_re "N") (re.range "P" "U") (re.range "W" "Z"))))) (re.union (re.range "A" "P") (re.range "R" "U") (str.to_re "W") (str.to_re "Y") (str.to_re "Z")) (re.union (re.++ (re.range "0" "9") (re.opt (re.union (re.range "A" "H") (str.to_re "J") (str.to_re "K") (str.to_re "S") (str.to_re "T") (str.to_re "U") (str.to_re "W") (re.range "0" "9")))) (re.++ (re.union (re.range "A" "H") (re.range "K" "Y")) (re.range "0" "9") (re.opt (re.union (str.to_re "A") (str.to_re "B") (str.to_re "E") (str.to_re "H") (str.to_re "M") (str.to_re "N") (str.to_re "P") (str.to_re "R") (str.to_re "V") (str.to_re "W") (str.to_re "X") (str.to_re "Y") (re.range "0" "9")))))) (re.++ (str.to_re "GIR") (re.* (re.union (str.to_re " ") (str.to_re "\u{9}") (str.to_re "\u{a}") (str.to_re "\u{c}") (str.to_re "\u{d}"))) (str.to_re "0AA"))) (str.to_re "\u{a}"))))
(check-sat)

(exit)
